/*********************************************
    * Lab01 - FCR
    * Author: Coso
    * Creation Date: Mar, 2019
    *********************************************/
instance_name = "medium_instance_15_FCR";

d = 5;
r = 15;

SCj = [288 315 265 296 283];
Dk = [53 52 71 54 50 58 59 16 12 98 61 31 96 97 31];

Cjk = [[45 51 55 66 88 46 73 85 50 61 56 52 42 57 61]
 [48 34 77 69 72 65 81 44 59 49 48 55 82 81 49]
 [87 47 76 77 41 51 82 60 36 33 33 70 56 60 58]
 [62 89 85 44 44 48 69 84 71 87 81 37 44 83 89]
 [88 31 66 33 55 76 79 30 52 81 66 70 44 87 68]];
Fjk = [[322 607 790 486 561 490 325 709 443 782 370 501 478 727 810]
 [904 459 499 630 363 452 391 549 629 843 860 523 476 714 570]
 [704 371 455 509 412 433 574 867 547 444 868 794 408 861 641]
 [752 314 452 399 760 582 685 836 339 855 324 864 391 538 451]
 [792 807 742 705 725 450 859 563 453 436 496 453 649 629 493]];
